(declare-fun X () String)
(declare-fun str.charCodeAt (String Int) Int)

(assert (= (to_real (str.charCodeAt X 2)) 109.0))

(model-add str.charCodeAt ((s String) (i Int)) Int (let ((c (str.at s i))) (ite (= c (str.from_code 0)) 0 (ite (= c (str.from_code 1)) 1 (ite (= c (str.from_code 2)) 2 (ite (= c (str.from_code 3)) 3 (ite (= c (str.from_code 4)) 4 (ite (= c (str.from_code 5)) 5 (ite (= c (str.from_code 6)) 6 (ite (= c (str.from_code 7)) 7 (ite (= c (str.from_code 8)) 8 (ite (= c (str.from_code 9)) 9 (ite (= c (str.from_code 10)) 10 (ite (= c (str.from_code 11)) 11 (ite (= c (str.from_code 12)) 12 (ite (= c (str.from_code 13)) 13 (ite (= c (str.from_code 14)) 14 (ite (= c (str.from_code 15)) 15 (ite (= c (str.from_code 16)) 16 (ite (= c (str.from_code 17)) 17 (ite (= c (str.from_code 18)) 18 (ite (= c (str.from_code 19)) 19 (ite (= c (str.from_code 20)) 20 (ite (= c (str.from_code 21)) 21 (ite (= c (str.from_code 22)) 22 (ite (= c (str.from_code 23)) 23 (ite (= c (str.from_code 24)) 24 (ite (= c (str.from_code 25)) 25 (ite (= c (str.from_code 26)) 26 (ite (= c (str.from_code 27)) 27 (ite (= c (str.from_code 28)) 28 (ite (= c (str.from_code 29)) 29 (ite (= c (str.from_code 30)) 30 (ite (= c (str.from_code 31)) 31 (ite (= c (str.from_code 32)) 32 (ite (= c (str.from_code 33)) 33 (ite (= c (str.from_code 34)) 34 (ite (= c (str.from_code 35)) 35 (ite (= c (str.from_code 36)) 36 (ite (= c (str.from_code 37)) 37 (ite (= c (str.from_code 38)) 38 (ite (= c (str.from_code 39)) 39 (ite (= c (str.from_code 40)) 40 (ite (= c (str.from_code 41)) 41 (ite (= c (str.from_code 42)) 42 (ite (= c (str.from_code 43)) 43 (ite (= c (str.from_code 44)) 44 (ite (= c (str.from_code 45)) 45 (ite (= c (str.from_code 46)) 46 (ite (= c (str.from_code 47)) 47 (ite (= c (str.from_code 48)) 48 (ite (= c (str.from_code 49)) 49 (ite (= c (str.from_code 50)) 50 (ite (= c (str.from_code 51)) 51 (ite (= c (str.from_code 52)) 52 (ite (= c (str.from_code 53)) 53 (ite (= c (str.from_code 54)) 54 (ite (= c (str.from_code 55)) 55 (ite (= c (str.from_code 56)) 56 (ite (= c (str.from_code 57)) 57 (ite (= c (str.from_code 58)) 58 (ite (= c (str.from_code 59)) 59 (ite (= c (str.from_code 60)) 60 (ite (= c (str.from_code 61)) 61 (ite (= c (str.from_code 62)) 62 (ite (= c (str.from_code 63)) 63 (ite (= c (str.from_code 64)) 64 (ite (= c (str.from_code 65)) 65 (ite (= c (str.from_code 66)) 66 (ite (= c (str.from_code 67)) 67 (ite (= c (str.from_code 68)) 68 (ite (= c (str.from_code 69)) 69 (ite (= c (str.from_code 70)) 70 (ite (= c (str.from_code 71)) 71 (ite (= c (str.from_code 72)) 72 (ite (= c (str.from_code 73)) 73 (ite (= c (str.from_code 74)) 74 (ite (= c (str.from_code 75)) 75 (ite (= c (str.from_code 76)) 76 (ite (= c (str.from_code 77)) 77 (ite (= c (str.from_code 78)) 78 (ite (= c (str.from_code 79)) 79 (ite (= c (str.from_code 80)) 80 (ite (= c (str.from_code 81)) 81 (ite (= c (str.from_code 82)) 82 (ite (= c (str.from_code 83)) 83 (ite (= c (str.from_code 84)) 84 (ite (= c (str.from_code 85)) 85 (ite (= c (str.from_code 86)) 86 (ite (= c (str.from_code 87)) 87 (ite (= c (str.from_code 88)) 88 (ite (= c (str.from_code 89)) 89 (ite (= c (str.from_code 90)) 90 (ite (= c (str.from_code 91)) 91 (ite (= c (str.from_code 92)) 92 (ite (= c (str.from_code 93)) 93 (ite (= c (str.from_code 94)) 94 (ite (= c (str.from_code 95)) 95 (ite (= c (str.from_code 96)) 96 (ite (= c (str.from_code 97)) 97 (ite (= c (str.from_code 98)) 98 (ite (= c (str.from_code 99)) 99 (ite (= c (str.from_code 100)) 100 (ite (= c (str.from_code 101)) 101 (ite (= c (str.from_code 102)) 102 (ite (= c (str.from_code 103)) 103 (ite (= c (str.from_code 104)) 104 (ite (= c (str.from_code 105)) 105 (ite (= c (str.from_code 106)) 106 (ite (= c (str.from_code 107)) 107 (ite (= c (str.from_code 108)) 108 (ite (= c (str.from_code 109)) 109 (ite (= c (str.from_code 110)) 110 (ite (= c (str.from_code 111)) 111 (ite (= c (str.from_code 112)) 112 (ite (= c (str.from_code 113)) 113 (ite (= c (str.from_code 114)) 114 (ite (= c (str.from_code 115)) 115 (ite (= c (str.from_code 116)) 116 (ite (= c (str.from_code 117)) 117 (ite (= c (str.from_code 118)) 118 (ite (= c (str.from_code 119)) 119 (ite (= c (str.from_code 120)) 120 (ite (= c (str.from_code 121)) 121 (ite (= c (str.from_code 122)) 122 (ite (= c (str.from_code 123)) 123 (ite (= c (str.from_code 124)) 124 (ite (= c (str.from_code 125)) 125 (ite (= c (str.from_code 126)) 126 (ite (= c (str.from_code 127)) 127 (ite (= c (str.from_code 128)) 128 (ite (= c (str.from_code 129)) 129 (ite (= c (str.from_code 130)) 130 (ite (= c (str.from_code 131)) 131 (ite (= c (str.from_code 132)) 132 (ite (= c (str.from_code 133)) 133 (ite (= c (str.from_code 134)) 134 (ite (= c (str.from_code 135)) 135 (ite (= c (str.from_code 136)) 136 (ite (= c (str.from_code 137)) 137 (ite (= c (str.from_code 138)) 138 (ite (= c (str.from_code 139)) 139 (ite (= c (str.from_code 140)) 140 (ite (= c (str.from_code 141)) 141 (ite (= c (str.from_code 142)) 142 (ite (= c (str.from_code 143)) 143 (ite (= c (str.from_code 144)) 144 (ite (= c (str.from_code 145)) 145 (ite (= c (str.from_code 146)) 146 (ite (= c (str.from_code 147)) 147 (ite (= c (str.from_code 148)) 148 (ite (= c (str.from_code 149)) 149 (ite (= c (str.from_code 150)) 150 (ite (= c (str.from_code 151)) 151 (ite (= c (str.from_code 152)) 152 (ite (= c (str.from_code 153)) 153 (ite (= c (str.from_code 154)) 154 (ite (= c (str.from_code 155)) 155 (ite (= c (str.from_code 156)) 156 (ite (= c (str.from_code 157)) 157 (ite (= c (str.from_code 158)) 158 (ite (= c (str.from_code 159)) 159 (ite (= c (str.from_code 160)) 160 (ite (= c (str.from_code 161)) 161 (ite (= c (str.from_code 162)) 162 (ite (= c (str.from_code 163)) 163 (ite (= c (str.from_code 164)) 164 (ite (= c (str.from_code 165)) 165 (ite (= c (str.from_code 166)) 166 (ite (= c (str.from_code 167)) 167 (ite (= c (str.from_code 168)) 168 (ite (= c (str.from_code 169)) 169 (ite (= c (str.from_code 170)) 170 (ite (= c (str.from_code 171)) 171 (ite (= c (str.from_code 172)) 172 (ite (= c (str.from_code 173)) 173 (ite (= c (str.from_code 174)) 174 (ite (= c (str.from_code 175)) 175 (ite (= c (str.from_code 176)) 176 (ite (= c (str.from_code 177)) 177 (ite (= c (str.from_code 178)) 178 (ite (= c (str.from_code 179)) 179 (ite (= c (str.from_code 180)) 180 (ite (= c (str.from_code 181)) 181 (ite (= c (str.from_code 182)) 182 (ite (= c (str.from_code 183)) 183 (ite (= c (str.from_code 184)) 184 (ite (= c (str.from_code 185)) 185 (ite (= c (str.from_code 186)) 186 (ite (= c (str.from_code 187)) 187 (ite (= c (str.from_code 188)) 188 (ite (= c (str.from_code 189)) 189 (ite (= c (str.from_code 190)) 190 (ite (= c (str.from_code 191)) 191 (ite (= c (str.from_code 192)) 192 (ite (= c (str.from_code 193)) 193 (ite (= c (str.from_code 194)) 194 (ite (= c (str.from_code 195)) 195 (ite (= c (str.from_code 196)) 196 (ite (= c (str.from_code 197)) 197 (ite (= c (str.from_code 198)) 198 (ite (= c (str.from_code 199)) 199 (ite (= c (str.from_code 200)) 200 (ite (= c (str.from_code 201)) 201 (ite (= c (str.from_code 202)) 202 (ite (= c (str.from_code 203)) 203 (ite (= c (str.from_code 204)) 204 (ite (= c (str.from_code 205)) 205 (ite (= c (str.from_code 206)) 206 (ite (= c (str.from_code 207)) 207 (ite (= c (str.from_code 208)) 208 (ite (= c (str.from_code 209)) 209 (ite (= c (str.from_code 210)) 210 (ite (= c (str.from_code 211)) 211 (ite (= c (str.from_code 212)) 212 (ite (= c (str.from_code 213)) 213 (ite (= c (str.from_code 214)) 214 (ite (= c (str.from_code 215)) 215 (ite (= c (str.from_code 216)) 216 (ite (= c (str.from_code 217)) 217 (ite (= c (str.from_code 218)) 218 (ite (= c (str.from_code 219)) 219 (ite (= c (str.from_code 220)) 220 (ite (= c (str.from_code 221)) 221 (ite (= c (str.from_code 222)) 222 (ite (= c (str.from_code 223)) 223 (ite (= c (str.from_code 224)) 224 (ite (= c (str.from_code 225)) 225 (ite (= c (str.from_code 226)) 226 (ite (= c (str.from_code 227)) 227 (ite (= c (str.from_code 228)) 228 (ite (= c (str.from_code 229)) 229 (ite (= c (str.from_code 230)) 230 (ite (= c (str.from_code 231)) 231 (ite (= c (str.from_code 232)) 232 (ite (= c (str.from_code 233)) 233 (ite (= c (str.from_code 234)) 234 (ite (= c (str.from_code 235)) 235 (ite (= c (str.from_code 236)) 236 (ite (= c (str.from_code 237)) 237 (ite (= c (str.from_code 238)) 238 (ite (= c (str.from_code 239)) 239 (ite (= c (str.from_code 240)) 240 (ite (= c (str.from_code 241)) 241 (ite (= c (str.from_code 242)) 242 (ite (= c (str.from_code 243)) 243 (ite (= c (str.from_code 244)) 244 (ite (= c (str.from_code 245)) 245 (ite (= c (str.from_code 246)) 246 (ite (= c (str.from_code 247)) 247 (ite (= c (str.from_code 248)) 248 (ite (= c (str.from_code 249)) 249 (ite (= c (str.from_code 250)) 250 (ite (= c (str.from_code 251)) 251 (ite (= c (str.from_code 252)) 252 (ite (= c (str.from_code 253)) 253 (ite (= c (str.from_code 254)) 254 (ite (= c (str.from_code 255)) 255 -1))))))))))))))))))))))))))))))))))))))))))))))))))))))))))))))))))))))))))))))))))))))))))))))))))))))))))))))))))))))))))))))))))))))))))))))))))))))))))))))))))))))))))))))))))))))))))))))))))))))))))))))))))))))))))))))))))))))))))))))))))))))))))))))))))

(check-sat)
(get-model)
